n_machines = 5;
n_resources = 7;
n_jobs = 48;
horizon = 25907;
LB = 5687;
n_jobs_per_resource = [8, 5, 3, 9, 7, 8, 8];
duration = [464, 517, 773, 819, 185, 690, 715, 672, 142, 857, 622, 387, 929, 624, 108, 734, 942, 835, 805, 47, 628, 672, 866, 284, 608, 906, 703, 320, 400, 815, 266, 983, 373, 432, 117, 722, 537, 350, 568, 39, 80, 579, 103, 568, 260, 756, 739, 366]